SCIP Status        : solving was interrupted [time limit reached]
Total Time         :    3600.00
  solving          :    3600.00
  presolving       :       0.23 (included in solving)
  reading          :       0.00
  copying          :       0.61 (32 #copies) (minimal 0.00, maximal 0.03, average 0.02)
Original Problem   :
  Problem name     : bbbenchmark/g05_60.7.cut
  Variables        : 61 (60 binary, 0 integer, 0 implicit integer, 1 continuous)
  Constraints      : 1 initial, 1 maximal
  Objective        : minimize, 1 non-zeros (abs.min = 1, abs.max = 1)
Presolved Problem  :
  Problem name     : t_bbbenchmark/g05_60.7.cut
  Variables        : 946 (60 binary, 0 integer, 885 implicit integer, 1 continuous)
  Constraints      : 886 initial, 5647 maximal
  Objective        : minimize, 1 non-zeros (abs.min = 1, abs.max = 1)
  Nonzeros         : 3601 constraint, 122 clique table
Presolvers         :   ExecTime  SetupTime  Calls  FixedVars   AggrVars   ChgTypes  ChgBounds   AddHoles    DelCons    AddCons   ChgSides   ChgCoefs
  boundshift       :       0.00       0.00      0          0          0          0          0          0          0          0          0          0
  convertinttobin  :       0.00       0.00      0          0          0          0          0          0          0          0          0          0
  domcol           :       0.00       0.00      1          0          0          0          0          0          0          0          0          0
  dualagg          :       0.00       0.00      0          0          0          0          0          0          0          0          0          0
  dualcomp         :       0.00       0.00      1          0          0          0          0          0          0          0          0          0
  dualinfer        :       0.00       0.00      0          0          0          0          0          0          0          0          0          0
  dualsparsify     :       0.00       0.00      1          0          0          0          0          0          0          0          0          0
  gateextraction   :       0.00       0.00      0          0          0          0          0          0          0          0          0          0
  implics          :       0.00       0.00      2          0          0          0          0          0          0          0          0          0
  inttobinary      :       0.00       0.00      0          0          0          0          0          0          0          0          0          0
  qpkktref         :       0.00       0.00      0          0          0          0          0          0          0          0          0          0
  redvub           :       0.00       0.00      0          0          0          0          0          0          0          0          0          0
  sparsify         :       0.00       0.00      1          0          0          0          0          0          0          0          0          0
  stuffing         :       0.00       0.00      0          0          0          0          0          0          0          0          0          0
  trivial          :       0.00       0.00      4          0          0          0          0          0          0          0          0          0
  tworowbnd        :       0.00       0.00      0          0          0          0          0          0          0          0          0          0
  dualfix          :       0.00       0.00      4          0          0          0          0          0          0          0          0          0
  genvbounds       :       0.00       0.00      0          0          0          0          0          0          0          0          0          0
  probing          :       0.12       0.00      1          0          0          0          0          0          0          0          0          0
  pseudoobj        :       0.00       0.00      1          0          0          0          1          0          0          0          0          0
  symmetry         :       0.00       0.00      0          0          0          0          0          0          0          0          0          0
  vbounds          :       0.00       0.00      1          0          0          0          0          0          0          0          0          0
  and              :       0.01       0.00      2          0          0          0          0          0          0          0          0          0
  linear           :       0.00       0.00      2          0          0          0          0          0          0          0          0          0
  logicor          :       0.00       0.00      0          0          0          0          0          0          0          0          0          0
  nonlinear        :       0.09       0.01      5          0          0          0          1          0          0        885          0          0
  benders          :       0.00       0.00      0          0          0          0          0          0          0          0          0          0
  components       :       0.01       0.00      1          0          0          0          0          0          0          0          0          0
  root node        :          -          -      -          0          -          -         50          -          -          -          -          -
Constraints        :     Number  MaxNumber  #Separate #Propagate    #EnfoLP    #EnfoRelax  #EnfoPS    #Check   #ResProp    Cutoffs    DomReds       Cuts    Applied      Conss   Children
  benderslp        :          0          0          0          0      85757          0          0       6625          0          0          0          0          0          0          0
  integral         :          0          0          0          0      85757          0          0       6625          0          1      12721          0          0       5666     164582
  and              :        885        885      93973     550123         19          0          0         32      98017         77    3345967       1729       1545          0          0
  linear           :          1          1        129     550046         19          0          0         30          0          0          0          0          0          0          0
  logicor          :          0+      4761          0     146364          0          0          0          0       1788        842        243          0          0          0          0
  benders          :          0          0          0          0         19          0          0         33          0          0          0          0          0          0          0
  countsols        :          0          0          0          0         19          0          0         33          0          0          0          0          0          0          0
  components       :          0          0          0          0          0          0          0          0          0          0          0          0          0          0          0
Constraint Timings :  TotalTime  SetupTime   Separate  Propagate     EnfoLP     EnfoPS     EnfoRelax   Check    ResProp    SB-Prop
  benderslp        :       0.08       0.00       0.00       0.00       0.06       0.00       0.00       0.02       0.00       0.00
  integral         :      57.37       0.00       0.00       0.00      57.34       0.00       0.00       0.03       0.00       0.00
  and              :      48.83       0.00      28.30      19.57       0.00       0.00       0.00       0.00       0.12       0.84
  linear           :       0.51       0.00       0.02       0.46       0.00       0.00       0.00       0.00       0.00       0.03
  logicor          :       9.20       0.00       0.00       9.12       0.00       0.00       0.00       0.00       0.01       0.07
  benders          :       0.00       0.00       0.00       0.00       0.00       0.00       0.00       0.00       0.00       0.00
  countsols        :       0.00       0.00       0.00       0.00       0.00       0.00       0.00       0.00       0.00       0.00
  components       :       0.17       0.00       0.00       0.17       0.00       0.00       0.00       0.00       0.00       0.00
Propagators        : #Propagate   #ResProp    Cutoffs    DomReds
  dualfix          :          4          0          0          0
  genvbounds       :          0          0          0          0
  nlobbt           :          0          0          0          0
  obbt             :          0          0          0          0
  probing          :          0          0          0          0
  pseudoobj        :     459885          0          0         51
  redcost          :     208635          0          0     593128
  rootredcost      :         33          0          0          0
  symmetry         :          0          0          0          0
  vbounds          :      47430          0          0          0
Propagator Timings :  TotalTime  SetupTime   Presolve  Propagate    ResProp    SB-Prop
  dualfix          :       0.00       0.00       0.00       0.00       0.00       0.00
  genvbounds       :       0.50       0.00       0.00       0.50       0.00       0.00
  nlobbt           :       0.00       0.00       0.00       0.00       0.00       0.00
  obbt             :       0.01       0.00       0.00       0.01       0.00       0.00
  probing          :       0.12       0.00       0.12       0.00       0.00       0.00
  pseudoobj        :       0.64       0.00       0.00       0.64       0.00       0.00
  redcost          :       7.07       0.00       0.00       7.07       0.00       0.00
  rootredcost      :       0.47       0.00       0.00       0.47       0.00       0.00
  symmetry         :       0.29       0.00       0.00       0.28       0.00       0.01
  vbounds          :       0.29       0.00       0.00       0.29       0.00       0.00
Conflict Analysis  :       Time      Calls    Success    DomReds  Conflicts   Literals    Reconvs ReconvLits   Dualrays   Nonzeros   LP Iters   (pool size: [10000,10000])
  propagation      :       0.00        919        554          -        644       25.1          0        0.0          -          -          -
  infeasible LP    :       0.00          0          0          -          0        0.0          0        0.0          0        0.0          0
  bound exceed. LP :      13.73      12250       9098          -      47021       31.3         17       22.1          0        0.0      62141
  strong branching :       0.00          0          0          -          0        0.0          0        0.0          -          -          0
  pseudo solution  :       0.00          0          0          -          0        0.0          0        0.0          -          -          -
  applied globally :       0.17          -          -          0      20352       31.0          -          -          0          -          -
  applied locally  :          -          -          -          0          0        0.0          -          -          0          -          -
Separators         :   ExecTime  SetupTime      Calls  RootCalls    Cutoffs    DomReds  FoundCuts ViaPoolAdd  DirectAdd    Applied ViaPoolApp  DirectApp      Conss
  cut pool         :       2.12          -      14711        163          -          -      21209     382581          -          -          -          -          -    (maximal pool size:       1272)
  aggregation      :      32.71       0.00       4278        129          0          0         21          6          0          6          6          0          0
  > cmir           :          -          -          -          -          -          -          -          6          0          6          6          0          -
  > flowcover      :          -          -          -          -          -          -          -          0          0          0          0          0          -
  > knapsackcover  :          -          -          -          -          -          -          -          0          0          0          0          0          -
  cgmip            :       0.00       0.00          0          0          0          0          0          0          0          0          0          0          0
  clique           :       0.00       0.00        129        129          0          0          0          0          0          0          0          0          0
  closecuts        :       0.00       0.00          0          0          0          0          0          0          0          0          0          0          0
  convexproj       :       0.00       0.00          0          0          0          0          0          0          0          0          0          0          0
  disjunctive      :       0.00       0.00          0          0          0          0          0          0          0          0          0          0          0
  eccuts           :       0.00       0.00          0          0          0          0          0          0          0          0          0          0          0
  gauge            :       0.00       0.00          0          0          0          0          0          0          0          0          0          0          0
  gomory           :       0.00       0.00          0          0          0          0          0          0          0          0          0          0          0
  > gomorymi       :          -          -          -          -          -          -          -          0          0          0          0          0          -
  > strongcg       :          -          -          -          -          -          -          -          0          0          0          0          0          -
  impliedbounds    :       0.12       0.00       4278        129          0          0          4          0          0          0          0          0          0
  interlattice     :       0.21       0.00         87         87          0          0         87          0         87         86          0         86          0
  interminor       :       0.00       0.00          0          0          0          0          0          0          0          0          0          0          0
  intersub         :       0.01       0.00          2          2          0          0          2          0          2          2          0          2          0
  intobj           :       0.00       0.00          0          0          0          0          0          0          0          0          0          0          0
  mcf              :       0.01       0.00          1          1          0          0          0          0          0          0          0          0          0
  minor            :       0.01       0.00          0          0          0          0          0          0          0          0          0          0          0
  mixing           :       0.00       0.00       4278        129          0          0          0          0          0          0          0          0          0
  oddcycle         :       0.00       0.00          0          0          0          0          0          0          0          0          0          0          0
  rapidlearning    :       0.00       0.00          0          0          0          0          0          0          0          0          0          0          0
  rlt              :       0.00       0.00         10         10          0          0          0          0          0          0          0          0          0
  zerohalf         :      20.99       0.00       3509         20          0          0      21184     382575          0      62926      62926          0          0
Cutselectors       :   ExecTime  SetupTime      Calls  RootCalls   Selected     Forced   Filtered  RootSelec   RootForc   RootFilt 
  hybrid           :       0.33       0.00       9246        132      64565          0     319834        275          0         29
Pricers            :   ExecTime  SetupTime      Calls       Vars
  problem variables:       0.00          -          0          0
Branching Rules    :   ExecTime  SetupTime   BranchLP  BranchExt   BranchPS    Cutoffs    DomReds       Cuts      Conss   Children
  allfullstrong    :       0.00       0.00          0          0          0          0          0          0          0          0
  cloud            :       0.00       0.00          0          0          0          0          0          0          0          0
  distribution     :       0.00       0.00          0          0          0          0          0          0          0          0
  fullstrong       :       0.00       0.00          0          0          0          0          0          0          0          0
  inference        :       0.00       0.00          0          0          0          0          0          0          0          0
  leastinf         :       0.00       0.00          0          0          0          0          0          0          0          0
  lookahead        :       0.00       0.00          0          0          0          0          0          0          0          0
  mostinf          :       0.00       0.00          0          0          0          0          0          0          0          0
  multaggr         :       0.00       0.00          0          0          0          0          0          0          0          0
  nodereopt        :       0.00       0.00          0          0          0          0          0          0          0          0
  pscost           :       0.00       0.00          0          0          0          0          0          0          0          0
  random           :       0.00       0.00          0          0          0          0          0          0          0          0
  relpscost        :      57.14       0.00      85738          0          0          1      12721          0       5694     164582
  vanillafullstrong:       0.00       0.00          0          0          0          0          0          0          0          0
Primal Heuristics  :   ExecTime  SetupTime      Calls      Found       Best
  LP solutions     :       0.01          -          -         19         19
  relax solutions  :       0.00          -          -          0          0
  pseudo solutions :       0.00          -          -          0          0
  strong branching :       0.07          -          -          7          7
  actconsdiving    :       0.00       0.00          0          0          0
  adaptivediving   :       2.59       0.00        111          0          0
  alns             :       1.11       0.00         23          2          2
  bound            :       0.00       0.00          0          0          0
  clique           :       0.00       0.00          1          0          0
  coefdiving       :       0.00       0.00          0          0          0
  completesol      :       0.00       0.00          0          0          0
  conflictdiving   :       6.44       0.00        361          0          0
  crossover        :       0.00       0.00          0          0          0
  dins             :       0.00       0.00          0          0          0
  distributiondivin:      19.54       0.00        361          0          0
  dps              :       0.00       0.00          0          0          0
  dualval          :       0.00       0.00          0          0          0
  farkasdiving     :       0.00       0.00          0          0          0
  feaspump         :       0.01       0.00          0          0          0
  fixandinfer      :       0.00       0.00          0          0          0
  fracdiving       :       9.94       0.00        362          0          0
  gins             :       0.01       0.00          0          0          0
  guideddiving     :       9.59       0.00        362          1          1
  indicator        :       0.07       0.00          0          0          0
  indicatordiving  :       0.00       0.00          0          0          0
  intdiving        :       0.00       0.00          0          0          0
  intshifting      :       0.04       0.00          9          0          0
  linesearchdiving :       9.74       0.00        362          0          0
  localbranching   :       0.00       0.00          0          0          0
  locks            :       0.00       0.00          1          0          0
  lpface           :       0.15       0.00          0          0          0
  mpec             :       1.55       0.00          1          0          0
  multistart       :       0.00       0.00          0          0          0
  mutation         :       0.00       0.00          0          0          0
  nlpdiving        :       4.06       0.00          8          0          0
  objpscostdiving  :      17.24       0.00         63          4          3
  octane           :       0.00       0.00          0          0          0
  ofins            :       0.09       0.00          0          0          0
  oneopt           :       0.16       0.00         40          0          0
  padm             :       0.00       0.00          0          0          0
  proximity        :       0.00       0.00          0          0          0
  pscostdiving     :      10.99       0.00        361          2          2
  randrounding     :       0.63       0.00       6588          0          0
  rens             :       0.00       0.00          0          0          0
  reoptsols        :       0.00       0.00          0          0          0
  repair           :       0.00       0.00          0          0          0
  rins             :       2.88       0.00         11          1          1
  rootsoldiving    :       7.37       0.00         24          0          0
  rounding         :       0.57       0.00       4252          0          0
  shiftandpropagate:       0.00       0.00          0          0          0
  shifting         :      17.08       0.00       8790         10          6
  simplerounding   :       0.11       0.00          0          0          0
  subnlp           :      73.64       0.00          0          0          0
  trivial          :       0.00       0.00          2          2          2
  trivialnegation  :       0.00       0.00          0          0          0
  trustregion      :       0.00       0.00          0          0          0
  trysol           :       0.17       0.00          0          0          0
  twoopt           :       0.00       0.00          0          0          0
  undercover       :       1.08       0.00          1          1          1
  vbounds          :       0.00       0.00          0          0          0
  veclendiving     :       5.16       0.00        361          0          0
  zeroobj          :       0.00       0.00          0          0          0
  zirounding       :       0.20       0.00       1000          0          0
  other solutions  :          -          -          -          0          -
Diving (single)    :      Calls      Nodes   LP Iters Backtracks  Conflicts   MinDepth   MaxDepth   AvgDepth  RoundSols  NLeafSols  MinSolDpt  MaxSolDpt  AvgSolDpt
  actconsdiving    :          0          -          -          -          -          -          -          -          -          -          -          -          -
  coefdiving       :          0          -          -          -          -          -          -          -          -          -          -          -          -
  conflictdiving   :        361       6354      58206        385       5062         18         45       31.7          0          -          -          -          -
  distributiondivin:        361       4411     136681        558       3931         20         38       25.5          0          -          -          -          -
  farkasdiving     :          0          -          -          -          -          -          -          -          -          -          -          -          -
  fracdiving       :        362      37411     100258        261       1625         27        251      117.6          0          -          -          -          -
  guideddiving     :        362      33117      98619        247       1849         30        197      105.7          0          1         62         62       62.0
  indicatordiving  :          0          -          -          -          -          -          -          -          -          -          -          -          -
  linesearchdiving :        362       8922     103382        443       6523         23         54       38.2          0          -          -          -          -
  pscostdiving     :        361       6129     123736        368       5329         22         43       30.8          0          2         37         43       40.0
  veclendiving     :        361       6694      39220        369       5749         21         44       32.5          0          -          -          -          -
Diving (adaptive)  :      Calls      Nodes   LP Iters Backtracks  Conflicts   MinDepth   MaxDepth   AvgDepth  RoundSols  NLeafSols  MinSolDpt  MaxSolDpt  AvgSolDpt
  actconsdiving    :         18        216       6354         39        223         22         32       24.7          0          -          -          -          -
  coefdiving       :         32        583       5200         33        556         27         39       31.5          0          -          -          -          -
  conflictdiving   :          0          -          -          -          -          -          -          -          -          -          -          -          -
  distributiondivin:          0          -          -          -          -          -          -          -          -          -          -          -          -
  farkasdiving     :          0          -          -          -          -          -          -          -          -          -          -          -          -
  fracdiving       :          9        896       1437          5         24         52        158      115.0          0          -          -          -          -
  guideddiving     :          9       1027       3342          7         46         51        164      127.6          0          -          -          -          -
  indicatordiving  :          0          -          -          -          -          -          -          -          -          -          -          -          -
  linesearchdiving :         15        348       2931         16        213         26         47       37.7          0          -          -          -          -
  pscostdiving     :         12        195       4390         13        169         24         36       30.0          0          -          -          -          -
  veclendiving     :         16        286       1367         16        214         27         38       32.5          0          -          -          -          -
Neighborhoods      :      Calls  SetupTime  SolveTime SolveNodes       Sols       Best       Exp3  EpsGreedy        UCB TgtFixRate  Opt  Inf Node Stal  Sol  Usr Othr Actv
  rens             :          2       0.01       0.01          0          0          0    0.00000   -1.00000    0.30042      0.700    0    1    0    0    0    0    1    1
  rins             :          2       0.03       0.01          0          0          0    0.00000   -1.00000    0.30042      0.700    0    1    0    0    0    0    1    1
  mutation         :          6       0.20       0.16        123          2          2    0.00000   -1.00000    0.50660      0.562    1    3    0    2    0    0    0    1
  localbranching   :          3       0.09       0.08         62          0          0    0.00000   -1.00000    0.46080      0.662    0    2    0    1    0    0    0    1
  crossover        :          3       0.08       0.00          2          0          0    0.00000   -1.00000    0.53904      0.437    0    3    0    0    0    0    0    1
  proximity        :          2       0.07       0.01          2          0          0    0.00000   -1.00000    0.54851      0.550    0    2    0    0    0    0    0    1
  zeroobjective    :          3       0.07       0.10         67          0          0    0.00000   -1.00000    0.44962      0.662    0    2    0    1    0    0    0    1
  dins             :          2       0.02       0.01          1          0          0    0.00000   -1.00000    0.29992      0.700    0    1    0    0    0    0    1    1
  trustregion      :          0       0.00       0.00          0          0          0    0.00000   -1.00000    1.00000      0.900    0    0    0    0    0    0    0    0
Expressions        :   #IntEval  IntEvalTi   #RevProp  RevPropTi    DomReds    Cutoffs  #Estimate  EstimTime  Branching  #Simplify SimplifyTi Simplified
  pow              :          0       0.00          0       0.00          0          0          0       0.00          0          0       0.00          0
  prod             :       3540       0.00          0       0.00          0          0          0       0.00          0       2655       0.01          0
  sum              :          8       0.00          2       0.00          0          0          0       0.00          0          3       0.00          2
  var              :       3327       0.01          0       0.00          0          0          0       0.00          0       6378       0.00          0
  varidx           :          0       0.00          0       0.00          0          0          0       0.00          0          0       0.00          0
LP                 :       Time      Calls Iterations  Iter/call   Iter/sec  Time-0-It Calls-0-It    ItLimit
  primal LP        :     159.92      17293          0       0.00       0.00     159.85      17293
  dual LP          :    2938.51     200490   26362204     152.75    8971.28       8.19      27907
  lex dual LP      :       0.00          0          0       0.00          -
  barrier LP       :       0.00          0          0       0.00          -       0.00          0
  resolve instable :       0.00          0          0       0.00          -
  diving/probing LP:      74.00       8168     906757     111.01   12253.47
  strong branching :      34.53       6266     460936      73.56   13348.86          -          -        131
    (at root node) :          -         19       4744     249.68          -
  conflict analysis:       7.34       6261      62141       9.93    8466.08
NLP relaxation     :
  solve time       :       4.04 (8 calls)
  convexity        :  nonconvex (1 linear rows, 0 convex ineq., 0 nonconvex ineq., 885 nonlinear eq. or two-sided ineq.)
NLP Solvers        :  #Problems  ProblemTi    #Solves  SolveTime      #Iter  Time/Iter      #Okay #TimeLimit #IterLimit #LObjLimit #Interrupt  #NumError #EvalError  #OutOfMem #LicenseEr #OtherTerm   #GlobOpt    #LocOpt  #Feasible #LocInfeas #GlobInfea #Unbounded   #Unknown
  ipopt            :          2       5.22         11       5.63        335       0.02         11          0          0          0          0          0          0          0          0          0          0          0          0          3          0          0          8
B&B Tree           :
  number of runs   :          1
  nodes            :     160110 (82291 internal, 77819 leaves)
  feasible leaves  :         19
  infeas. leaves   :        219
  objective leaves :      77580
  nodes (total)    :     160110 (82291 internal, 77819 leaves)
  nodes left       :       4409
  max depth        :         33
  max depth (total):         33
  backtracks       :      43209 (27.0%)
  early backtracks :          0 (0.0%)
  nodes exc. ref.  :          0 (0.0%)
  delayed cutoffs  :         10
  repropagations   :       4091 (739 domain reductions, 1 cutoffs)
  avg switch length:       4.61
  switching time   :     186.84
Estim. Tree Size   :     359344
Estimation Tree    : 164583 nodes (160174 visited, 82291 internal, 77883 leaves, 4409 open), weight: 0.4120 completed 0.6193
Estimations        :      estim      value      trend resolution     smooth
  wbe              :     378098          -          -          -          -
  tree-profile     :         -1          -          -          -          -
  gap              :     567226    0.93442    0.00004        128     561166
  tree-weight      :     359344    0.41197    0.00074        128     359912
  leaf-frequency   :     427489    0.48624    0.00001        128     428530
  ssg              :     382333    0.26058   -0.00029        128     376911
  open-nodes       :     443524 4409.00000   -3.92079        128     446575
Root Node          :
  First LP value   : -1.00000000000000e+00
  First LP Iters   :        610 (20333.33 Iter/sec)
  First LP Time    :       0.03
  Final Dual Bound : -8.86354243168984e-01
  Final Root Iters :       2934
  Root LP Estimate : -5.40978263152764e-01
Solution           :
  Solutions found  :         49 (44 improvements)
  First Solution   : +1.00000000000000e+05   (in run 1, after 0 nodes, 0.02 seconds, depth 0, found by <trivial>)
  Gap First Sol.   :   infinite
  Gap Last Sol.    :      16.15 %
  Primal Bound     : -6.04519774011300e-01   (in run 1, after 46846 nodes, 1005.25 seconds, depth 22, found by <relaxation>)
  Dual Bound       : -6.46947149158492e-01
  Gap              :       7.02 %
Integrals          :      Total       Avg%
  primal-dual      :   43257.71      12.02
  primal-ref       :          -          - (not evaluated)
  dual-ref         :          -          - (not evaluated)
